c 3 - XORSAT
p cnf 20 80
-10 -15 -16 0
-10 15 16 0
10 -15 16 0
10 15 -16 0
2 8 14 0
-2 -8 14 0
-2 8 -14 0
2 -8 -14 0
8 11 18 0
-8 -11 18 0
-8 11 -18 0
8 -11 -18 0
7 10 14 0
-7 -10 14 0
-7 10 -14 0
7 -10 -14 0
-2 -4 -9 0
-2 4 9 0
2 -4 9 0
2 4 -9 0
-5 -11 -20 0
-5 11 20 0
5 -11 20 0
5 11 -20 0
14 19 20 0
-14 -19 20 0
-14 19 -20 0
14 -19 -20 0
8 15 16 0
-8 -15 16 0
-8 15 -16 0
8 -15 -16 0
5 10 13 0
-5 -10 13 0
-5 10 -13 0
5 -10 -13 0
12 15 17 0
-12 -15 17 0
-12 15 -17 0
12 -15 -17 0
-1 -4 -6 0
-1 4 6 0
1 -4 6 0
1 4 -6 0
-6 -7 -9 0
-6 7 9 0
6 -7 9 0
6 7 -9 0
17 9 19 0
-17 -9 19 0
-17 9 -19 0
17 -9 -19 0
3 7 11 0
-3 -7 11 0
-3 7 -11 0
3 -7 -11 0
5 18 19 0
-5 -18 19 0
-5 18 -19 0
5 -18 -19 0
-3 -12 -13 0
-3 12 13 0
3 -12 13 0
3 12 -13 0
-16 -18 -20 0
-16 18 20 0
16 -18 20 0
16 18 -20 0
-2 -12 -13 0
-2 12 13 0
2 -12 13 0
2 12 -13 0
-1 -4 -17 0
-1 4 17 0
1 -4 17 0
1 4 -17 0
-1 -3 -6 0
-1 3 6 0
1 -3 6 0
1 3 -6 0
